40
    78     3    41    24    83   100    84    16    84    51    69    97    18    27    86     4    50    54   100    76    75    11    57    56    13    30    80    89    14    95    71    25    56    44     8    15    45    69    50    15
     7     6     8    10     7     7     4     9     1     3     2     3     4     6     5     2     4     5     9     9     2     4     2     7     1     3     8    10     2     9     2     4     4     2     3     6     4     2     5     1
    94  1227    63   140   429   625  1510  1616   370  1643  1336   103  1152  1814  1462  1506  1339   195     0  1240   754   912  1291  1690  1319  1245     0  1841   677  1349   330   299  1271   589   483  1420     0  1076    39  1839
